(declare-const |K:57:58:65| Int)
(declare-const havoc Int)
(declare-const |phi_tmp___1:15:17:62:68| Int)
(declare-const |phi_x:60:64| Int)
(declare-const |x':53:59:66| Int)
(declare-const |phi_tmp___1:13:14:16:61:67| Int)
(declare-const |phi_tmp___1:18:63:69| Int)
(declare-const |havoc:2| Int)
(assert (and (<= (+ |havoc:2| -1000000) 0)
               (or (and (<= |havoc:2| 0) (= (+ (- |phi_x:60:64|) havoc) 0))
                     (and (< (- |havoc:2|) 0)
                            (or (not (<= (- |K:57:58:65|) 0))
                                  (= (+ |x':53:59:66| (- havoc)
                                          (- (* |K:57:58:65| |havoc:2|))) 0))
                            (or (not (<= (- |K:57:58:65|) 0))
                                  (<= (+ (- |x':53:59:66|) |K:57:58:65| havoc) 0))
                            (or (and (= |K:57:58:65| 0)
                                       (= (+ (- |x':53:59:66|) havoc) 0))
                                  (and (<= (+ (- |K:57:58:65|) 1) 0)
                                         (<= (+ havoc -99) 0)
                                         (<= (+ (- |havoc:2|) 1) 0)
                                         (<= (+ |x':53:59:66| (- |havoc:2|)
                                                  -99) 0)
                                         (<= (+ (- |havoc:2|) 1) 0)))
                            (<= (- |K:57:58:65|) 0) (< (- |havoc:2|) 0)
                            (<= (+ (- |x':53:59:66|) 100) 0)
                            (= (+ |x':53:59:66| (- |phi_x:60:64|)) 0)))
               (or (and (< (- |havoc:2|) 0)
                          (or (and (< (- |havoc:2|) 0)
                                     (or (and (< (+ |phi_x:60:64| -100) 0)
                                                (= (- |phi_tmp___1:13:14:16:61:67|) 0))
                                           (and (<= (+ (- |phi_x:60:64|) 100) 0)
                                                  (= (+ (- |phi_tmp___1:13:14:16:61:67|)
                                                          1) 0)))
                                     (= (+ (- |phi_tmp___1:15:17:62:68|)
                                             |phi_tmp___1:13:14:16:61:67|) 0))
                                (and (<= |havoc:2| 0)
                                       (= (- |phi_tmp___1:15:17:62:68|) 0)))
                          (= (+ (- |phi_tmp___1:18:63:69|)
                                  |phi_tmp___1:15:17:62:68|) 0))
                     (and (<= |havoc:2| 0)
                            (= (+ (- |phi_tmp___1:18:63:69|) 1) 0)))
               (= |phi_tmp___1:18:63:69| 0)))
(check-sat)
